15 4 
5401	5401	5401	5401	
408	573	984	
937	110	171	
999	372	740	
289	854	1361	
119	34	59	
6	628	783	
169	940	992	
97	135	267	
155	710	1106	
38	922	1064	
879	277	370	
682	218	376	
762	529	940	
949	591	920	
266	309	589	
